instances/knapsack/discrete/knapsack_140_20.kp
75400
140
642

63 6.3 57
59 5.9 30
41 4.1 43
66 6.6 15
63 6.3 61
57 5.7 100
20 2.0 85
15 1.5 75
68 6.8 30
5 0.5 54
51 5.1 58
98 9.8 22
27 2.7 30
87 8.7 97
4 0.4 46
60 6.0 43
24 2.4 17
79 7.9 77
12 1.2 70
49 4.9 97
8 0.8 81
63 6.3 14
31 3.1 23
50 5.0 67
92 9.2 12
27 2.7 6
33 3.3 27
19 1.9 79
53 5.3 25
62 6.2 24
29 2.9 28
31 3.1 47
67 6.7 79
92 9.2 46
27 2.7 11
60 6.0 68
31 3.1 76
32 3.2 94
23 2.3 46
38 3.8 75
10 1.0 79
29 2.9 45
25 2.5 77
77 7.7 66
70 7.0 26
66 6.6 78
49 4.9 36
25 2.5 88
2 0.2 32
47 4.7 1
18 1.8 50
63 6.3 34
40 4.0 98
7 0.7 24
88 8.8 35
11 1.1 49
80 8.0 90
42 4.2 75
35 3.5 43
57 5.7 78
64 6.4 3
54 5.4 77
23 2.3 93
74 7.4 49
91 9.1 30
19 1.9 76
24 2.4 60
30 3.0 13
75 7.5 40
93 9.3 81
49 4.9 20
97 9.7 54
13 1.3 56
90 9.0 89
99 9.9 70
88 8.8 17
58 5.8 29
74 7.4 84
88 8.8 79
62 6.2 51
49 4.9 94
33 3.3 97
98 9.8 89
17 1.7 69
45 4.5 56
93 9.3 80
31 3.1 81
27 2.7 34
45 4.5 23
46 4.6 14
64 6.4 17
12 1.2 1
16 1.6 29
63 6.3 60
11 1.1 99
32 3.2 14
76 7.6 24
88 8.8 39
99 9.9 60
7 0.7 80
28 2.8 68
15 1.5 1
13 1.3 54
75 7.5 81
40 4.0 26
57 5.7 74
78 7.8 1
46 4.6 48
70 7.0 21
92 9.2 32
94 9.4 13
58 5.8 49
24 2.4 21
16 1.6 59
28 2.8 89
78 7.8 44
22 2.2 94
24 2.4 100
96 9.6 61
68 6.8 30
67 6.7 33
72 7.2 34
27 2.7 29
98 9.8 18
60 6.0 91
50 5.0 88
7 0.7 76
39 3.9 37
58 5.8 75
78 7.8 48
65 6.5 34
8 0.8 30
6 0.6 7
27 2.7 18
8 0.8 29
5 0.5 91
36 3.6 12
18 1.8 9
61 6.1 30
63 6.3 61

22678
724

[5.07 2.69 4.69 3.21 0.39 0.9 0.97 2.42 0.31 2.09 4.06 3.77 2.58 0.1 2.32 0.05 1.29 3.88 0.56 0.94 0.44 4.1 3.09 3.2 1.05 1.3 4.81 3.5 2.55 4.41 2.3 4.35 3.97 2.08 4.9 0.71 2.89 5.15 3.91 1.09 1.14 4.06 1.75 1.97 2.31 3.86 4.65 4.76 2.43 2.38 2.63 2.76 3.94 3.54 3.27 3.07 1.92 1.18 2.92 4.57 4.27 3.38 0.58 4.86 4.62 4.4 4.49 2.81 1.8 4.07 0.19 2.62 2.33 3.43 0.77 1.26 4.97 3.72 2.51 4.87 4.9 0.74 4.0 2.23 2.56 0.26 5.02 3.68 0.65 1.35 2.35 3.36 3.13 4.24 1.11 0.85 3.14 2.2 0.14 1.45 4.91 1.21 3.55 0.03 1.62 0.12 1.46 2.03 0.58 2.57 2.58 1.42 2.86 3.61 4.99 3.62 2.51 3.31 0.86 1.18 1.3 3.02 1.81 4.12 4.16 4.0 1.8 4.94 4.45 3.87 5.12 0.08 4.31 4.28 1.84 2.25 2.06 4.17 0.81 4.0]

[6 82 16 13 26 96 99 2 51 84 66 53 6 46 27 99 83 38 51 8 95 22 42 45 55 42 84 46 20 17 76 82 34 87 50 3 34 91 78 89 61 20 88 68 53 89 40 32 45 2 73 62 35 18 51 30 27 41 78 12 31 13 94 81 90 38 47 61 58 84 28 88 96 85 34 63 85 93 43 77 16 100 41 12 96 44 62 62 100 41 31 67 91 46 26 91 55 19 46 58 91 90 8 66 51 68 37 69 93 47 73 61 99 23 91 33 37 39 75 75 50 15 34 17 71 93 90 10 45 29 92 7 69 66 83 20 3 33 92 98]
