instances/knapsack/discrete_knapsack_uncertainty/knapsack_140_20.lp
\ Model knapsack_140_20
\ LP format - for model browsing. Use MPS format to capture full model detail.
\ Signature: 0x9977cb8fbdb63468
Minimize
  - 82 x[0] - 54 x[1] - 92 x[2] - 80 x[3] - 81 x[4] - x[5] - 61 x[6]
   - 7 x[7] - 26 x[8] - 70 x[9] - 23 x[10] - 39 x[11] - 27 x[12] - 70 x[13]
   - 67 x[14] - 88 x[15] - 14 x[16] - 30 x[17] - 22 x[18] - 93 x[19]
   - 9 x[20] - 91 x[21] - 96 x[22] - 28 x[23] - 77 x[24] - 54 x[25]
   - 84 x[26] - 75 x[27] - 50 x[28] - 92 x[29] - 41 x[30] - 36 x[31]
   - 76 x[32] - 63 x[33] - 35 x[34] - 29 x[35] - 29 x[36] - 55 x[37]
   - 90 x[38] - 39 x[39] - 100 x[40] - 33 x[41] - 89 x[42] - 15 x[43]
   - 26 x[44] - 39 x[45] - 56 x[46] - 24 x[47] - 48 x[48] - 41 x[49]
   - 63 x[50] - 42 x[51] - 39 x[52] - 57 x[53] - 84 x[54] - 6 x[55]
   - 22 x[56] - 40 x[57] - 40 x[58] - 15 x[59] - 84 x[60] - 50 x[61]
   - 57 x[62] - 53 x[63] - 38 x[64] - 93 x[65] - 33 x[66] - 29 x[67]
   - 96 x[68] - 97 x[69] - 53 x[70] - 43 x[71] - 17 x[72] - 25 x[73]
   - 98 x[74] - 54 x[75] - 70 x[76] - 65 x[77] - 56 x[78] - 63 x[79]
   - 3 x[80] - 66 x[81] - 65 x[82] - 58 x[83] - 65 x[84] - 20 x[85]
   - 98 x[86] - 27 x[87] - 20 x[88] - 34 x[89] - 18 x[90] - 77 x[91]
   - 93 x[92] - 8 x[93] - 8 x[94] - 14 x[95] - 85 x[96] - 68 x[97]
   - 40 x[98] - 72 x[99] - 32 x[100] - 25 x[101] - 78 x[102] - x[103]
   - 79 x[104] - 27 x[105] - 38 x[106] - 20 x[107] - 58 x[108] - 92 x[109]
   - 89 x[110] - 18 x[111] - 57 x[112] - 87 x[113] - 30 x[114] - 85 x[115]
   - 83 x[116] - 17 x[117] - 74 x[118] - 35 x[119] - 33 x[120] - 82 x[121]
   - 22 x[122] - 63 x[123] - 75 x[124] - 92 x[125] - 44 x[126] - 26 x[127]
   - 47 x[128] - 16 x[129] - 26 x[130] - 67 x[131] - 56 x[132] - 26 x[133]
   - 89 x[134] - 79 x[135] - 60 x[136] - 13 x[137] - 51 x[138] - 9 x[139]
Subject To
 primal_upper: 45 x[0] + 98 x[1] + 56 x[2] + 97 x[3] + 22 x[4] + 91 x[5]
   + 91 x[6] + 81 x[7] + 55 x[8] + 84 x[9] + 77 x[10] + 17 x[11] + 42 x[12]
   + 30 x[13] + 30 x[14] + 50 x[15] + 15 x[16] + 6 x[17] + 91 x[18]
   + 8 x[19] + 67 x[20] + 41 x[21] + 18 x[22] + 8 x[23] + 98 x[24]
   + 70 x[25] + 84 x[26] + 65 x[27] + 51 x[28] + 85 x[29] + 67 x[30]
   + 81 x[31] + x[32] + 95 x[33] + 70 x[34] + 83 x[35] + 22 x[36]
   + 38 x[37] + 30 x[38] + 96 x[39] + 81 x[40] + 71 x[41] + 84 x[42]
   + 27 x[43] + 85 x[44] + 16 x[45] + 59 x[46] + 55 x[47] + 17 x[48]
   + 30 x[49] + 80 x[50] + 10 x[51] + 71 x[52] + 18 x[53] + 22 x[54]
   + 9 x[55] + 51 x[56] + 24 x[57] + 42 x[58] + 96 x[59] + 2 x[60]
   + 60 x[61] + 5 x[62] + 4 x[63] + 61 x[64] + 22 x[65] + 38 x[66]
   + 92 x[67] + 10 x[68] + 95 x[69] + 19 x[70] + 51 x[71] + 24 x[72]
   + 25 x[73] + 21 x[74] + 78 x[75] + 40 x[76] + 37 x[77] + 38 x[78]
   + 68 x[79] + 91 x[80] + 11 x[81] + 44 x[82] + 71 x[83] + 39 x[84]
   + 39 x[85] + 45 x[86] + 34 x[87] + 20 x[88] + 69 x[89] + 58 x[90]
   + 26 x[91] + 50 x[92] + 65 x[93] + 90 x[94] + 59 x[95] + 39 x[96]
   + 70 x[97] + 98 x[98] + 70 x[99] + 95 x[100] + 78 x[101] + 28 x[102]
   + 94 x[103] + 79 x[104] + 88 x[105] + 65 x[106] + 92 x[107] + 4 x[108]
   + 71 x[109] + 84 x[110] + 89 x[111] + 3 x[112] + 67 x[113] + 99 x[114]
   + 20 x[115] + 77 x[116] + 7 x[117] + 27 x[118] + 74 x[119] + 17 x[120]
   + 62 x[121] + 33 x[122] + 52 x[123] + 87 x[124] + 4 x[125] + 49 x[126]
   + 13 x[127] + 12 x[128] + 21 x[129] + 63 x[130] + 7 x[131] + 8 x[132]
   + 18 x[133] + 70 x[134] + 72 x[135] + 71 x[136] + 44 x[137] + 15 x[138]
   + 6 x[139] + 4.5 r[0] + 9.8 r[1] + 5.6 r[2] + 9.7 r[3] + 2.2 r[4]
   + 9.1 r[5] + 9.1 r[6] + 8.1 r[7] + 5.5 r[8] + 8.4 r[9] + 7.7 r[10]
   + 1.7 r[11] + 4.2 r[12] + 3 r[13] + 3 r[14] + 5 r[15] + 1.5 r[16]
   + 0.6 r[17] + 9.1 r[18] + 0.8 r[19] + 6.7 r[20] + 4.1 r[21] + 1.8 r[22]
   + 0.8 r[23] + 9.8 r[24] + 7 r[25] + 8.4 r[26] + 6.5 r[27] + 5.1 r[28]
   + 8.5 r[29] + 6.7 r[30] + 8.1 r[31] + 0.1 r[32] + 9.5 r[33] + 7 r[34]
   + 8.3 r[35] + 2.2 r[36] + 3.8 r[37] + 3 r[38] + 9.6 r[39] + 8.1 r[40]
   + 7.1 r[41] + 8.4 r[42] + 2.7 r[43] + 8.5 r[44] + 1.6 r[45] + 5.9 r[46]
   + 5.5 r[47] + 1.7 r[48] + 3 r[49] + 8 r[50] + r[51] + 7.1 r[52]
   + 1.8 r[53] + 2.2 r[54] + 0.9 r[55] + 5.1 r[56] + 2.4 r[57] + 4.2 r[58]
   + 9.6 r[59] + 0.2 r[60] + 6 r[61] + 0.5 r[62] + 0.4 r[63] + 6.1 r[64]
   + 2.2 r[65] + 3.8 r[66] + 9.2 r[67] + r[68] + 9.5 r[69] + 1.9 r[70]
   + 5.1 r[71] + 2.4 r[72] + 2.5 r[73] + 2.1 r[74] + 7.8 r[75] + 4 r[76]
   + 3.7 r[77] + 3.8 r[78] + 6.8 r[79] + 9.1 r[80] + 1.1 r[81] + 4.4 r[82]
   + 7.1 r[83] + 3.9 r[84] + 3.9 r[85] + 4.5 r[86] + 3.4 r[87] + 2 r[88]
   + 6.9 r[89] + 5.8 r[90] + 2.6 r[91] + 5 r[92] + 6.5 r[93] + 9 r[94]
   + 5.9 r[95] + 3.9 r[96] + 7 r[97] + 9.8 r[98] + 7 r[99] + 9.5 r[100]
   + 7.8 r[101] + 2.8 r[102] + 9.4 r[103] + 7.9 r[104] + 8.8 r[105]
   + 6.5 r[106] + 9.2 r[107] + 0.4 r[108] + 7.1 r[109] + 8.4 r[110]
   + 8.9 r[111] + 0.3 r[112] + 6.7 r[113] + 9.9 r[114] + 2 r[115]
   + 7.7 r[116] + 0.7 r[117] + 2.7 r[118] + 7.4 r[119] + 1.7 r[120]
   + 6.2 r[121] + 3.3 r[122] + 5.2 r[123] + 8.7 r[124] + 0.4 r[125]
   + 4.9 r[126] + 1.3 r[127] + 1.2 r[128] + 2.1 r[129] + 6.3 r[130]
   + 0.7 r[131] + 0.8 r[132] + 1.8 r[133] + 7 r[134] + 7.2 r[135]
   + 7.1 r[136] + 4.4 r[137] + 1.5 r[138] + 0.6 r[139] <= 671
 primal_lower: 1.86288781612909 x[0] + 2.868701805345079 x[1]
   + 3.218231328699165 x[2] + 2.182573941734418 x[3]
   + 1.254369637755201 x[4] + 3.446354335615639 x[5]
   + 0.5870665584274798 x[6] + 4.605352871439099 x[7]
   + 2.249647968952259 x[8] + 2.550029987744634 x[9]
   + 0.8419141276273281 x[10] + 4.02809947024872 x[11]
   + 0.2196324965830198 x[12] + 4.561516423539538 x[13]
   + 0.7886676786626793 x[14] + 4.192412235126268 x[15]
   + 4.121939238382391 x[16] + 1.97167378623788 x[17]
   + 3.870726610410129 x[18] + 4.080793153249743 x[19]
   + 3.59057140398037 x[20] + 1.22919297253239 x[21]
   + 2.445375406541323 x[22] + 3.810293931224683 x[23]
   + 4.172772879462049 x[24] + 3.661260103814434 x[25]
   + 4.341987335524644 x[26] + 1.500653360260501 x[27]
   + 4.087324498433175 x[28] + 1.2961308147814 x[29]
   + 3.262412560418023 x[30] + 0.2365053914856343 x[31]
   + 2.112128264338937 x[32] + 2.005141991040904 x[33]
   + 0.4965537900955612 x[34] + 0.874838051589741 x[35]
   + 0.249723202756756 x[36] + 1.957325003653145 x[37]
   + 3.265060000127873 x[38] + 1.178203474751924 x[39]
   + 1.401052151960339 x[40] + 2.587845621176834 x[41]
   + 3.588276160835661 x[42] + 4.486834031857959 x[43]
   + 4.057173675585195 x[44] + 1.278445649380454 x[45]
   + 3.093524663577683 x[46] + 3.340000245003707 x[47]
   + 4.439106563931502 x[48] + 3.702296466050205 x[49]
   + 1.30152256295952 x[50] + 2.179604222588983 x[51]
   + 3.419501649361237 x[52] + 3.337712459976046 x[53]
   + 4.013125784135743 x[54] + 3.111856595439722 x[55]
   + 4.439535579875124 x[56] + 3.228269237976763 x[57]
   + 0.2721553125087217 x[58] + 3.606934578957832 x[59]
   + 3.543811291973923 x[60] + 1.355459547601239 x[61]
   + 0.7564723753171816 x[62] + 2.080236512066984 x[63]
   + 2.497196508899235 x[64] + 2.367774105730376 x[65]
   + 3.231183937605248 x[66] + 2.68249924310954 x[67]
   + 0.1592889771396026 x[68] + 4.363680882749349 x[69]
   + 0.5905548009863273 x[70] + 1.1680425795166 x[71]
   + 1.920980611780581 x[72] + 2.552949417496567 x[73]
   + 4.286087171790289 x[74] + 2.626141628035773 x[75]
   + 0.2533421752246327 x[76] + 1.844992747539833 x[77]
   + 3.286043374448581 x[78] + 1.507438456015979 x[79]
   + 1.061204431415275 x[80] + 3.567310049327997 x[81]
   + 3.565318460335073 x[82] + 1.28737890176357 x[83]
   + 2.594848470961652 x[84] + 2.652698041173976 x[85]
   + 0.2078871317578282 x[86] + 3.179625265401325 x[87]
   + 3.430106977577343 x[88] + 2.616742721890977 x[89]
   + 1.860867239377454 x[90] + 2.636044587195689 x[91]
   + 2.981197240524553 x[92] + 0.4377375539366319 x[93]
   + 0.0246582722470201 x[94] + 1.083733131771572 x[95]
   + 0.4053173225681544 x[96] + 2.02666096889604 x[97]
   + 3.952055399191509 x[98] + 4.541073333209499 x[99]
   + 3.596760559477987 x[100] + 0.2580295490715779 x[101]
   + 1.949652774215622 x[102] + 3.088738544010692 x[103]
   + 2.857155438196489 x[104] + 4.104472731349048 x[105]
   + 1.161021517398002 x[106] + 1.038495306337028 x[107]
   + 3.509579543442422 x[108] + 3.157693000849868 x[109]
   + 3.211888009123514 x[110] + 0.9488659651395429 x[111]
   + 0.1849457546192499 x[112] + 4.131910259517883 x[113]
   + 4.439601541000049 x[114] + 1.180891380963929 x[115]
   + 2.002233911173717 x[116] + 2.820050055466981 x[117]
   + 0.3786292751123125 x[118] + 2.552313027233335 x[119]
   + 1.358697519668325 x[120] + 3.799047019374342 x[121]
   + 1.230592948364356 x[122] + 4.58647790136919 x[123]
   + 4.474280027864499 x[124] + 1.90562402182579 x[125]
   + 4.309219268059905 x[126] + 0.4288167383429479 x[127]
   + 2.383618213288544 x[128] + 0.5756571510503656 x[129]
   + 1.741602290258685 x[130] + 3.991267872431413 x[131]
   + 2.378037702090873 x[132] + 2.370103468614325 x[133]
   + 1.143361502551252 x[134] + 3.989655095962999 x[135]
   + 3.726935406884451 x[136] + 1.894327000620179 x[137]
   + 0.9805925051024348 x[138] + 1.427375554214355 x[139] + 90 u[0]
   + 50 u[1] + 72 u[2] + 77 u[3] + 42 u[4] + 36 u[5] + 11 u[6] + 62 u[7]
   + 39 u[8] + 68 u[9] + 26 u[10] + 33 u[11] + 26 u[12] + 14 u[13]
   + 47 u[14] + 23 u[15] + 67 u[16] + 42 u[17] + 51 u[18] + 36 u[19]
   + 95 u[20] + 70 u[21] + 2 u[22] + 33 u[23] + 15 u[24] + 42 u[25]
   + 8 u[26] + 82 u[27] + 52 u[28] + 49 u[29] + 44 u[30] + 94 u[31]
   + 86 u[32] + 3 u[33] + 82 u[34] + 3 u[35] + 62 u[36] + 3 u[37]
   + 38 u[38] + 93 u[39] + 85 u[40] + 24 u[41] + 68 u[42] + 72 u[43]
   + 49 u[44] + 41 u[45] + 36 u[46] + 36 u[47] + 93 u[48] + 6 u[49]
   + 73 u[50] + 90 u[51] + 31 u[52] + 2 u[53] + 11 u[54] + 22 u[55]
   + 67 u[56] + u[57] + 66 u[58] + 4 u[59] + 83 u[60] + 69 u[61] + 14 u[62]
   + 41 u[63] + 38 u[64] + 94 u[65] + 23 u[66] + u[67] + 94 u[68]
   + 12 u[69] + 64 u[70] + 8 u[71] + 24 u[72] + 57 u[73] + 14 u[74]
   + 11 u[75] + 37 u[76] + 89 u[77] + 19 u[78] + 89 u[79] + 32 u[80]
   + 52 u[81] + 45 u[82] + 60 u[83] + 72 u[84] + 40 u[85] + 86 u[86]
   + 10 u[87] + 80 u[88] + 69 u[89] + 55 u[90] + 55 u[91] + 19 u[92]
   + 86 u[93] + 66 u[94] + 39 u[95] + 47 u[96] + 75 u[97] + 70 u[98]
   + 14 u[99] + 75 u[100] + 38 u[101] + 72 u[102] + 94 u[103] + 83 u[104]
   + 100 u[105] + 17 u[106] + 37 u[107] + 33 u[108] + 15 u[109] + u[110]
   + 29 u[111] + 63 u[112] + 99 u[113] + 79 u[114] + 73 u[115] + 13 u[116]
   + 7 u[117] + 27 u[118] + 99 u[119] + 78 u[120] + 87 u[121] + 50 u[122]
   + 73 u[123] + 67 u[124] + 65 u[125] + 14 u[126] + 18 u[127] + 81 u[128]
   + 57 u[129] + 44 u[130] + 15 u[131] + 57 u[132] + 42 u[133] + 63 u[134]
   + 92 u[135] + 7 u[136] + 89 u[137] + 80 u[138] + 6 u[139] <= 38542
 mccormick1[0]: - u[0] + r[0] <= 0
 mccormick1[1]: - u[1] + r[1] <= 0
 mccormick1[2]: - u[2] + r[2] <= 0
 mccormick1[3]: - u[3] + r[3] <= 0
 mccormick1[4]: - u[4] + r[4] <= 0
 mccormick1[5]: - u[5] + r[5] <= 0
 mccormick1[6]: - u[6] + r[6] <= 0
 mccormick1[7]: - u[7] + r[7] <= 0
 mccormick1[8]: - u[8] + r[8] <= 0
 mccormick1[9]: - u[9] + r[9] <= 0
 mccormick1[10]: - u[10] + r[10] <= 0
 mccormick1[11]: - u[11] + r[11] <= 0
 mccormick1[12]: - u[12] + r[12] <= 0
 mccormick1[13]: - u[13] + r[13] <= 0
 mccormick1[14]: - u[14] + r[14] <= 0
 mccormick1[15]: - u[15] + r[15] <= 0
 mccormick1[16]: - u[16] + r[16] <= 0
 mccormick1[17]: - u[17] + r[17] <= 0
 mccormick1[18]: - u[18] + r[18] <= 0
 mccormick1[19]: - u[19] + r[19] <= 0
 mccormick1[20]: - u[20] + r[20] <= 0
 mccormick1[21]: - u[21] + r[21] <= 0
 mccormick1[22]: - u[22] + r[22] <= 0
 mccormick1[23]: - u[23] + r[23] <= 0
 mccormick1[24]: - u[24] + r[24] <= 0
 mccormick1[25]: - u[25] + r[25] <= 0
 mccormick1[26]: - u[26] + r[26] <= 0
 mccormick1[27]: - u[27] + r[27] <= 0
 mccormick1[28]: - u[28] + r[28] <= 0
 mccormick1[29]: - u[29] + r[29] <= 0
 mccormick1[30]: - u[30] + r[30] <= 0
 mccormick1[31]: - u[31] + r[31] <= 0
 mccormick1[32]: - u[32] + r[32] <= 0
 mccormick1[33]: - u[33] + r[33] <= 0
 mccormick1[34]: - u[34] + r[34] <= 0
 mccormick1[35]: - u[35] + r[35] <= 0
 mccormick1[36]: - u[36] + r[36] <= 0
 mccormick1[37]: - u[37] + r[37] <= 0
 mccormick1[38]: - u[38] + r[38] <= 0
 mccormick1[39]: - u[39] + r[39] <= 0
 mccormick1[40]: - u[40] + r[40] <= 0
 mccormick1[41]: - u[41] + r[41] <= 0
 mccormick1[42]: - u[42] + r[42] <= 0
 mccormick1[43]: - u[43] + r[43] <= 0
 mccormick1[44]: - u[44] + r[44] <= 0
 mccormick1[45]: - u[45] + r[45] <= 0
 mccormick1[46]: - u[46] + r[46] <= 0
 mccormick1[47]: - u[47] + r[47] <= 0
 mccormick1[48]: - u[48] + r[48] <= 0
 mccormick1[49]: - u[49] + r[49] <= 0
 mccormick1[50]: - u[50] + r[50] <= 0
 mccormick1[51]: - u[51] + r[51] <= 0
 mccormick1[52]: - u[52] + r[52] <= 0
 mccormick1[53]: - u[53] + r[53] <= 0
 mccormick1[54]: - u[54] + r[54] <= 0
 mccormick1[55]: - u[55] + r[55] <= 0
 mccormick1[56]: - u[56] + r[56] <= 0
 mccormick1[57]: - u[57] + r[57] <= 0
 mccormick1[58]: - u[58] + r[58] <= 0
 mccormick1[59]: - u[59] + r[59] <= 0
 mccormick1[60]: - u[60] + r[60] <= 0
 mccormick1[61]: - u[61] + r[61] <= 0
 mccormick1[62]: - u[62] + r[62] <= 0
 mccormick1[63]: - u[63] + r[63] <= 0
 mccormick1[64]: - u[64] + r[64] <= 0
 mccormick1[65]: - u[65] + r[65] <= 0
 mccormick1[66]: - u[66] + r[66] <= 0
 mccormick1[67]: - u[67] + r[67] <= 0
 mccormick1[68]: - u[68] + r[68] <= 0
 mccormick1[69]: - u[69] + r[69] <= 0
 mccormick1[70]: - u[70] + r[70] <= 0
 mccormick1[71]: - u[71] + r[71] <= 0
 mccormick1[72]: - u[72] + r[72] <= 0
 mccormick1[73]: - u[73] + r[73] <= 0
 mccormick1[74]: - u[74] + r[74] <= 0
 mccormick1[75]: - u[75] + r[75] <= 0
 mccormick1[76]: - u[76] + r[76] <= 0
 mccormick1[77]: - u[77] + r[77] <= 0
 mccormick1[78]: - u[78] + r[78] <= 0
 mccormick1[79]: - u[79] + r[79] <= 0
 mccormick1[80]: - u[80] + r[80] <= 0
 mccormick1[81]: - u[81] + r[81] <= 0
 mccormick1[82]: - u[82] + r[82] <= 0
 mccormick1[83]: - u[83] + r[83] <= 0
 mccormick1[84]: - u[84] + r[84] <= 0
 mccormick1[85]: - u[85] + r[85] <= 0
 mccormick1[86]: - u[86] + r[86] <= 0
 mccormick1[87]: - u[87] + r[87] <= 0
 mccormick1[88]: - u[88] + r[88] <= 0
 mccormick1[89]: - u[89] + r[89] <= 0
 mccormick1[90]: - u[90] + r[90] <= 0
 mccormick1[91]: - u[91] + r[91] <= 0
 mccormick1[92]: - u[92] + r[92] <= 0
 mccormick1[93]: - u[93] + r[93] <= 0
 mccormick1[94]: - u[94] + r[94] <= 0
 mccormick1[95]: - u[95] + r[95] <= 0
 mccormick1[96]: - u[96] + r[96] <= 0
 mccormick1[97]: - u[97] + r[97] <= 0
 mccormick1[98]: - u[98] + r[98] <= 0
 mccormick1[99]: - u[99] + r[99] <= 0
 mccormick1[100]: - u[100] + r[100] <= 0
 mccormick1[101]: - u[101] + r[101] <= 0
 mccormick1[102]: - u[102] + r[102] <= 0
 mccormick1[103]: - u[103] + r[103] <= 0
 mccormick1[104]: - u[104] + r[104] <= 0
 mccormick1[105]: - u[105] + r[105] <= 0
 mccormick1[106]: - u[106] + r[106] <= 0
 mccormick1[107]: - u[107] + r[107] <= 0
 mccormick1[108]: - u[108] + r[108] <= 0
 mccormick1[109]: - u[109] + r[109] <= 0
 mccormick1[110]: - u[110] + r[110] <= 0
 mccormick1[111]: - u[111] + r[111] <= 0
 mccormick1[112]: - u[112] + r[112] <= 0
 mccormick1[113]: - u[113] + r[113] <= 0
 mccormick1[114]: - u[114] + r[114] <= 0
 mccormick1[115]: - u[115] + r[115] <= 0
 mccormick1[116]: - u[116] + r[116] <= 0
 mccormick1[117]: - u[117] + r[117] <= 0
 mccormick1[118]: - u[118] + r[118] <= 0
 mccormick1[119]: - u[119] + r[119] <= 0
 mccormick1[120]: - u[120] + r[120] <= 0
 mccormick1[121]: - u[121] + r[121] <= 0
 mccormick1[122]: - u[122] + r[122] <= 0
 mccormick1[123]: - u[123] + r[123] <= 0
 mccormick1[124]: - u[124] + r[124] <= 0
 mccormick1[125]: - u[125] + r[125] <= 0
 mccormick1[126]: - u[126] + r[126] <= 0
 mccormick1[127]: - u[127] + r[127] <= 0
 mccormick1[128]: - u[128] + r[128] <= 0
 mccormick1[129]: - u[129] + r[129] <= 0
 mccormick1[130]: - u[130] + r[130] <= 0
 mccormick1[131]: - u[131] + r[131] <= 0
 mccormick1[132]: - u[132] + r[132] <= 0
 mccormick1[133]: - u[133] + r[133] <= 0
 mccormick1[134]: - u[134] + r[134] <= 0
 mccormick1[135]: - u[135] + r[135] <= 0
 mccormick1[136]: - u[136] + r[136] <= 0
 mccormick1[137]: - u[137] + r[137] <= 0
 mccormick1[138]: - u[138] + r[138] <= 0
 mccormick1[139]: - u[139] + r[139] <= 0
 mccormick2[0]: - x[0] + r[0] <= 0
 mccormick2[1]: - x[1] + r[1] <= 0
 mccormick2[2]: - x[2] + r[2] <= 0
 mccormick2[3]: - x[3] + r[3] <= 0
 mccormick2[4]: - x[4] + r[4] <= 0
 mccormick2[5]: - x[5] + r[5] <= 0
 mccormick2[6]: - x[6] + r[6] <= 0
 mccormick2[7]: - x[7] + r[7] <= 0
 mccormick2[8]: - x[8] + r[8] <= 0
 mccormick2[9]: - x[9] + r[9] <= 0
 mccormick2[10]: - x[10] + r[10] <= 0
 mccormick2[11]: - x[11] + r[11] <= 0
 mccormick2[12]: - x[12] + r[12] <= 0
 mccormick2[13]: - x[13] + r[13] <= 0
 mccormick2[14]: - x[14] + r[14] <= 0
 mccormick2[15]: - x[15] + r[15] <= 0
 mccormick2[16]: - x[16] + r[16] <= 0
 mccormick2[17]: - x[17] + r[17] <= 0
 mccormick2[18]: - x[18] + r[18] <= 0
 mccormick2[19]: - x[19] + r[19] <= 0
 mccormick2[20]: - x[20] + r[20] <= 0
 mccormick2[21]: - x[21] + r[21] <= 0
 mccormick2[22]: - x[22] + r[22] <= 0
 mccormick2[23]: - x[23] + r[23] <= 0
 mccormick2[24]: - x[24] + r[24] <= 0
 mccormick2[25]: - x[25] + r[25] <= 0
 mccormick2[26]: - x[26] + r[26] <= 0
 mccormick2[27]: - x[27] + r[27] <= 0
 mccormick2[28]: - x[28] + r[28] <= 0
 mccormick2[29]: - x[29] + r[29] <= 0
 mccormick2[30]: - x[30] + r[30] <= 0
 mccormick2[31]: - x[31] + r[31] <= 0
 mccormick2[32]: - x[32] + r[32] <= 0
 mccormick2[33]: - x[33] + r[33] <= 0
 mccormick2[34]: - x[34] + r[34] <= 0
 mccormick2[35]: - x[35] + r[35] <= 0
 mccormick2[36]: - x[36] + r[36] <= 0
 mccormick2[37]: - x[37] + r[37] <= 0
 mccormick2[38]: - x[38] + r[38] <= 0
 mccormick2[39]: - x[39] + r[39] <= 0
 mccormick2[40]: - x[40] + r[40] <= 0
 mccormick2[41]: - x[41] + r[41] <= 0
 mccormick2[42]: - x[42] + r[42] <= 0
 mccormick2[43]: - x[43] + r[43] <= 0
 mccormick2[44]: - x[44] + r[44] <= 0
 mccormick2[45]: - x[45] + r[45] <= 0
 mccormick2[46]: - x[46] + r[46] <= 0
 mccormick2[47]: - x[47] + r[47] <= 0
 mccormick2[48]: - x[48] + r[48] <= 0
 mccormick2[49]: - x[49] + r[49] <= 0
 mccormick2[50]: - x[50] + r[50] <= 0
 mccormick2[51]: - x[51] + r[51] <= 0
 mccormick2[52]: - x[52] + r[52] <= 0
 mccormick2[53]: - x[53] + r[53] <= 0
 mccormick2[54]: - x[54] + r[54] <= 0
 mccormick2[55]: - x[55] + r[55] <= 0
 mccormick2[56]: - x[56] + r[56] <= 0
 mccormick2[57]: - x[57] + r[57] <= 0
 mccormick2[58]: - x[58] + r[58] <= 0
 mccormick2[59]: - x[59] + r[59] <= 0
 mccormick2[60]: - x[60] + r[60] <= 0
 mccormick2[61]: - x[61] + r[61] <= 0
 mccormick2[62]: - x[62] + r[62] <= 0
 mccormick2[63]: - x[63] + r[63] <= 0
 mccormick2[64]: - x[64] + r[64] <= 0
 mccormick2[65]: - x[65] + r[65] <= 0
 mccormick2[66]: - x[66] + r[66] <= 0
 mccormick2[67]: - x[67] + r[67] <= 0
 mccormick2[68]: - x[68] + r[68] <= 0
 mccormick2[69]: - x[69] + r[69] <= 0
 mccormick2[70]: - x[70] + r[70] <= 0
 mccormick2[71]: - x[71] + r[71] <= 0
 mccormick2[72]: - x[72] + r[72] <= 0
 mccormick2[73]: - x[73] + r[73] <= 0
 mccormick2[74]: - x[74] + r[74] <= 0
 mccormick2[75]: - x[75] + r[75] <= 0
 mccormick2[76]: - x[76] + r[76] <= 0
 mccormick2[77]: - x[77] + r[77] <= 0
 mccormick2[78]: - x[78] + r[78] <= 0
 mccormick2[79]: - x[79] + r[79] <= 0
 mccormick2[80]: - x[80] + r[80] <= 0
 mccormick2[81]: - x[81] + r[81] <= 0
 mccormick2[82]: - x[82] + r[82] <= 0
 mccormick2[83]: - x[83] + r[83] <= 0
 mccormick2[84]: - x[84] + r[84] <= 0
 mccormick2[85]: - x[85] + r[85] <= 0
 mccormick2[86]: - x[86] + r[86] <= 0
 mccormick2[87]: - x[87] + r[87] <= 0
 mccormick2[88]: - x[88] + r[88] <= 0
 mccormick2[89]: - x[89] + r[89] <= 0
 mccormick2[90]: - x[90] + r[90] <= 0
 mccormick2[91]: - x[91] + r[91] <= 0
 mccormick2[92]: - x[92] + r[92] <= 0
 mccormick2[93]: - x[93] + r[93] <= 0
 mccormick2[94]: - x[94] + r[94] <= 0
 mccormick2[95]: - x[95] + r[95] <= 0
 mccormick2[96]: - x[96] + r[96] <= 0
 mccormick2[97]: - x[97] + r[97] <= 0
 mccormick2[98]: - x[98] + r[98] <= 0
 mccormick2[99]: - x[99] + r[99] <= 0
 mccormick2[100]: - x[100] + r[100] <= 0
 mccormick2[101]: - x[101] + r[101] <= 0
 mccormick2[102]: - x[102] + r[102] <= 0
 mccormick2[103]: - x[103] + r[103] <= 0
 mccormick2[104]: - x[104] + r[104] <= 0
 mccormick2[105]: - x[105] + r[105] <= 0
 mccormick2[106]: - x[106] + r[106] <= 0
 mccormick2[107]: - x[107] + r[107] <= 0
 mccormick2[108]: - x[108] + r[108] <= 0
 mccormick2[109]: - x[109] + r[109] <= 0
 mccormick2[110]: - x[110] + r[110] <= 0
 mccormick2[111]: - x[111] + r[111] <= 0
 mccormick2[112]: - x[112] + r[112] <= 0
 mccormick2[113]: - x[113] + r[113] <= 0
 mccormick2[114]: - x[114] + r[114] <= 0
 mccormick2[115]: - x[115] + r[115] <= 0
 mccormick2[116]: - x[116] + r[116] <= 0
 mccormick2[117]: - x[117] + r[117] <= 0
 mccormick2[118]: - x[118] + r[118] <= 0
 mccormick2[119]: - x[119] + r[119] <= 0
 mccormick2[120]: - x[120] + r[120] <= 0
 mccormick2[121]: - x[121] + r[121] <= 0
 mccormick2[122]: - x[122] + r[122] <= 0
 mccormick2[123]: - x[123] + r[123] <= 0
 mccormick2[124]: - x[124] + r[124] <= 0
 mccormick2[125]: - x[125] + r[125] <= 0
 mccormick2[126]: - x[126] + r[126] <= 0
 mccormick2[127]: - x[127] + r[127] <= 0
 mccormick2[128]: - x[128] + r[128] <= 0
 mccormick2[129]: - x[129] + r[129] <= 0
 mccormick2[130]: - x[130] + r[130] <= 0
 mccormick2[131]: - x[131] + r[131] <= 0
 mccormick2[132]: - x[132] + r[132] <= 0
 mccormick2[133]: - x[133] + r[133] <= 0
 mccormick2[134]: - x[134] + r[134] <= 0
 mccormick2[135]: - x[135] + r[135] <= 0
 mccormick2[136]: - x[136] + r[136] <= 0
 mccormick2[137]: - x[137] + r[137] <= 0
 mccormick2[138]: - x[138] + r[138] <= 0
 mccormick2[139]: - x[139] + r[139] <= 0
 mccormick3[0]: x[0] + u[0] - r[0] <= 1
 mccormick3[1]: x[1] + u[1] - r[1] <= 1
 mccormick3[2]: x[2] + u[2] - r[2] <= 1
 mccormick3[3]: x[3] + u[3] - r[3] <= 1
 mccormick3[4]: x[4] + u[4] - r[4] <= 1
 mccormick3[5]: x[5] + u[5] - r[5] <= 1
 mccormick3[6]: x[6] + u[6] - r[6] <= 1
 mccormick3[7]: x[7] + u[7] - r[7] <= 1
 mccormick3[8]: x[8] + u[8] - r[8] <= 1
 mccormick3[9]: x[9] + u[9] - r[9] <= 1
 mccormick3[10]: x[10] + u[10] - r[10] <= 1
 mccormick3[11]: x[11] + u[11] - r[11] <= 1
 mccormick3[12]: x[12] + u[12] - r[12] <= 1
 mccormick3[13]: x[13] + u[13] - r[13] <= 1
 mccormick3[14]: x[14] + u[14] - r[14] <= 1
 mccormick3[15]: x[15] + u[15] - r[15] <= 1
 mccormick3[16]: x[16] + u[16] - r[16] <= 1
 mccormick3[17]: x[17] + u[17] - r[17] <= 1
 mccormick3[18]: x[18] + u[18] - r[18] <= 1
 mccormick3[19]: x[19] + u[19] - r[19] <= 1
 mccormick3[20]: x[20] + u[20] - r[20] <= 1
 mccormick3[21]: x[21] + u[21] - r[21] <= 1
 mccormick3[22]: x[22] + u[22] - r[22] <= 1
 mccormick3[23]: x[23] + u[23] - r[23] <= 1
 mccormick3[24]: x[24] + u[24] - r[24] <= 1
 mccormick3[25]: x[25] + u[25] - r[25] <= 1
 mccormick3[26]: x[26] + u[26] - r[26] <= 1
 mccormick3[27]: x[27] + u[27] - r[27] <= 1
 mccormick3[28]: x[28] + u[28] - r[28] <= 1
 mccormick3[29]: x[29] + u[29] - r[29] <= 1
 mccormick3[30]: x[30] + u[30] - r[30] <= 1
 mccormick3[31]: x[31] + u[31] - r[31] <= 1
 mccormick3[32]: x[32] + u[32] - r[32] <= 1
 mccormick3[33]: x[33] + u[33] - r[33] <= 1
 mccormick3[34]: x[34] + u[34] - r[34] <= 1
 mccormick3[35]: x[35] + u[35] - r[35] <= 1
 mccormick3[36]: x[36] + u[36] - r[36] <= 1
 mccormick3[37]: x[37] + u[37] - r[37] <= 1
 mccormick3[38]: x[38] + u[38] - r[38] <= 1
 mccormick3[39]: x[39] + u[39] - r[39] <= 1
 mccormick3[40]: x[40] + u[40] - r[40] <= 1
 mccormick3[41]: x[41] + u[41] - r[41] <= 1
 mccormick3[42]: x[42] + u[42] - r[42] <= 1
 mccormick3[43]: x[43] + u[43] - r[43] <= 1
 mccormick3[44]: x[44] + u[44] - r[44] <= 1
 mccormick3[45]: x[45] + u[45] - r[45] <= 1
 mccormick3[46]: x[46] + u[46] - r[46] <= 1
 mccormick3[47]: x[47] + u[47] - r[47] <= 1
 mccormick3[48]: x[48] + u[48] - r[48] <= 1
 mccormick3[49]: x[49] + u[49] - r[49] <= 1
 mccormick3[50]: x[50] + u[50] - r[50] <= 1
 mccormick3[51]: x[51] + u[51] - r[51] <= 1
 mccormick3[52]: x[52] + u[52] - r[52] <= 1
 mccormick3[53]: x[53] + u[53] - r[53] <= 1
 mccormick3[54]: x[54] + u[54] - r[54] <= 1
 mccormick3[55]: x[55] + u[55] - r[55] <= 1
 mccormick3[56]: x[56] + u[56] - r[56] <= 1
 mccormick3[57]: x[57] + u[57] - r[57] <= 1
 mccormick3[58]: x[58] + u[58] - r[58] <= 1
 mccormick3[59]: x[59] + u[59] - r[59] <= 1
 mccormick3[60]: x[60] + u[60] - r[60] <= 1
 mccormick3[61]: x[61] + u[61] - r[61] <= 1
 mccormick3[62]: x[62] + u[62] - r[62] <= 1
 mccormick3[63]: x[63] + u[63] - r[63] <= 1
 mccormick3[64]: x[64] + u[64] - r[64] <= 1
 mccormick3[65]: x[65] + u[65] - r[65] <= 1
 mccormick3[66]: x[66] + u[66] - r[66] <= 1
 mccormick3[67]: x[67] + u[67] - r[67] <= 1
 mccormick3[68]: x[68] + u[68] - r[68] <= 1
 mccormick3[69]: x[69] + u[69] - r[69] <= 1
 mccormick3[70]: x[70] + u[70] - r[70] <= 1
 mccormick3[71]: x[71] + u[71] - r[71] <= 1
 mccormick3[72]: x[72] + u[72] - r[72] <= 1
 mccormick3[73]: x[73] + u[73] - r[73] <= 1
 mccormick3[74]: x[74] + u[74] - r[74] <= 1
 mccormick3[75]: x[75] + u[75] - r[75] <= 1
 mccormick3[76]: x[76] + u[76] - r[76] <= 1
 mccormick3[77]: x[77] + u[77] - r[77] <= 1
 mccormick3[78]: x[78] + u[78] - r[78] <= 1
 mccormick3[79]: x[79] + u[79] - r[79] <= 1
 mccormick3[80]: x[80] + u[80] - r[80] <= 1
 mccormick3[81]: x[81] + u[81] - r[81] <= 1
 mccormick3[82]: x[82] + u[82] - r[82] <= 1
 mccormick3[83]: x[83] + u[83] - r[83] <= 1
 mccormick3[84]: x[84] + u[84] - r[84] <= 1
 mccormick3[85]: x[85] + u[85] - r[85] <= 1
 mccormick3[86]: x[86] + u[86] - r[86] <= 1
 mccormick3[87]: x[87] + u[87] - r[87] <= 1
 mccormick3[88]: x[88] + u[88] - r[88] <= 1
 mccormick3[89]: x[89] + u[89] - r[89] <= 1
 mccormick3[90]: x[90] + u[90] - r[90] <= 1
 mccormick3[91]: x[91] + u[91] - r[91] <= 1
 mccormick3[92]: x[92] + u[92] - r[92] <= 1
 mccormick3[93]: x[93] + u[93] - r[93] <= 1
 mccormick3[94]: x[94] + u[94] - r[94] <= 1
 mccormick3[95]: x[95] + u[95] - r[95] <= 1
 mccormick3[96]: x[96] + u[96] - r[96] <= 1
 mccormick3[97]: x[97] + u[97] - r[97] <= 1
 mccormick3[98]: x[98] + u[98] - r[98] <= 1
 mccormick3[99]: x[99] + u[99] - r[99] <= 1
 mccormick3[100]: x[100] + u[100] - r[100] <= 1
 mccormick3[101]: x[101] + u[101] - r[101] <= 1
 mccormick3[102]: x[102] + u[102] - r[102] <= 1
 mccormick3[103]: x[103] + u[103] - r[103] <= 1
 mccormick3[104]: x[104] + u[104] - r[104] <= 1
 mccormick3[105]: x[105] + u[105] - r[105] <= 1
 mccormick3[106]: x[106] + u[106] - r[106] <= 1
 mccormick3[107]: x[107] + u[107] - r[107] <= 1
 mccormick3[108]: x[108] + u[108] - r[108] <= 1
 mccormick3[109]: x[109] + u[109] - r[109] <= 1
 mccormick3[110]: x[110] + u[110] - r[110] <= 1
 mccormick3[111]: x[111] + u[111] - r[111] <= 1
 mccormick3[112]: x[112] + u[112] - r[112] <= 1
 mccormick3[113]: x[113] + u[113] - r[113] <= 1
 mccormick3[114]: x[114] + u[114] - r[114] <= 1
 mccormick3[115]: x[115] + u[115] - r[115] <= 1
 mccormick3[116]: x[116] + u[116] - r[116] <= 1
 mccormick3[117]: x[117] + u[117] - r[117] <= 1
 mccormick3[118]: x[118] + u[118] - r[118] <= 1
 mccormick3[119]: x[119] + u[119] - r[119] <= 1
 mccormick3[120]: x[120] + u[120] - r[120] <= 1
 mccormick3[121]: x[121] + u[121] - r[121] <= 1
 mccormick3[122]: x[122] + u[122] - r[122] <= 1
 mccormick3[123]: x[123] + u[123] - r[123] <= 1
 mccormick3[124]: x[124] + u[124] - r[124] <= 1
 mccormick3[125]: x[125] + u[125] - r[125] <= 1
 mccormick3[126]: x[126] + u[126] - r[126] <= 1
 mccormick3[127]: x[127] + u[127] - r[127] <= 1
 mccormick3[128]: x[128] + u[128] - r[128] <= 1
 mccormick3[129]: x[129] + u[129] - r[129] <= 1
 mccormick3[130]: x[130] + u[130] - r[130] <= 1
 mccormick3[131]: x[131] + u[131] - r[131] <= 1
 mccormick3[132]: x[132] + u[132] - r[132] <= 1
 mccormick3[133]: x[133] + u[133] - r[133] <= 1
 mccormick3[134]: x[134] + u[134] - r[134] <= 1
 mccormick3[135]: x[135] + u[135] - r[135] <= 1
 mccormick3[136]: x[136] + u[136] - r[136] <= 1
 mccormick3[137]: x[137] + u[137] - r[137] <= 1
 mccormick3[138]: x[138] + u[138] - r[138] <= 1
 mccormick3[139]: x[139] + u[139] - r[139] <= 1
Bounds
Binaries
 x[0] x[1] x[2] x[3] x[4] x[5] x[6] x[7] x[8] x[9] x[10] x[11] x[12] x[13]
 x[14] x[15] x[16] x[17] x[18] x[19] x[20] x[21] x[22] x[23] x[24] x[25]
 x[26] x[27] x[28] x[29] x[30] x[31] x[32] x[33] x[34] x[35] x[36] x[37]
 x[38] x[39] x[40] x[41] x[42] x[43] x[44] x[45] x[46] x[47] x[48] x[49]
 x[50] x[51] x[52] x[53] x[54] x[55] x[56] x[57] x[58] x[59] x[60] x[61]
 x[62] x[63] x[64] x[65] x[66] x[67] x[68] x[69] x[70] x[71] x[72] x[73]
 x[74] x[75] x[76] x[77] x[78] x[79] x[80] x[81] x[82] x[83] x[84] x[85]
 x[86] x[87] x[88] x[89] x[90] x[91] x[92] x[93] x[94] x[95] x[96] x[97]
 x[98] x[99] x[100] x[101] x[102] x[103] x[104] x[105] x[106] x[107] x[108]
 x[109] x[110] x[111] x[112] x[113] x[114] x[115] x[116] x[117] x[118]
 x[119] x[120] x[121] x[122] x[123] x[124] x[125] x[126] x[127] x[128]
 x[129] x[130] x[131] x[132] x[133] x[134] x[135] x[136] x[137] x[138]
 x[139] u[0] u[1] u[2] u[3] u[4] u[5] u[6] u[7] u[8] u[9] u[10] u[11] u[12]
 u[13] u[14] u[15] u[16] u[17] u[18] u[19] u[20] u[21] u[22] u[23] u[24]
 u[25] u[26] u[27] u[28] u[29] u[30] u[31] u[32] u[33] u[34] u[35] u[36]
 u[37] u[38] u[39] u[40] u[41] u[42] u[43] u[44] u[45] u[46] u[47] u[48]
 u[49] u[50] u[51] u[52] u[53] u[54] u[55] u[56] u[57] u[58] u[59] u[60]
 u[61] u[62] u[63] u[64] u[65] u[66] u[67] u[68] u[69] u[70] u[71] u[72]
 u[73] u[74] u[75] u[76] u[77] u[78] u[79] u[80] u[81] u[82] u[83] u[84]
 u[85] u[86] u[87] u[88] u[89] u[90] u[91] u[92] u[93] u[94] u[95] u[96]
 u[97] u[98] u[99] u[100] u[101] u[102] u[103] u[104] u[105] u[106] u[107]
 u[108] u[109] u[110] u[111] u[112] u[113] u[114] u[115] u[116] u[117]
 u[118] u[119] u[120] u[121] u[122] u[123] u[124] u[125] u[126] u[127]
 u[128] u[129] u[130] u[131] u[132] u[133] u[134] u[135] u[136] u[137]
 u[138] u[139] r[0] r[1] r[2] r[3] r[4] r[5] r[6] r[7] r[8] r[9] r[10]
 r[11] r[12] r[13] r[14] r[15] r[16] r[17] r[18] r[19] r[20] r[21] r[22]
 r[23] r[24] r[25] r[26] r[27] r[28] r[29] r[30] r[31] r[32] r[33] r[34]
 r[35] r[36] r[37] r[38] r[39] r[40] r[41] r[42] r[43] r[44] r[45] r[46]
 r[47] r[48] r[49] r[50] r[51] r[52] r[53] r[54] r[55] r[56] r[57] r[58]
 r[59] r[60] r[61] r[62] r[63] r[64] r[65] r[66] r[67] r[68] r[69] r[70]
 r[71] r[72] r[73] r[74] r[75] r[76] r[77] r[78] r[79] r[80] r[81] r[82]
 r[83] r[84] r[85] r[86] r[87] r[88] r[89] r[90] r[91] r[92] r[93] r[94]
 r[95] r[96] r[97] r[98] r[99] r[100] r[101] r[102] r[103] r[104] r[105]
 r[106] r[107] r[108] r[109] r[110] r[111] r[112] r[113] r[114] r[115]
 r[116] r[117] r[118] r[119] r[120] r[121] r[122] r[123] r[124] r[125]
 r[126] r[127] r[128] r[129] r[130] r[131] r[132] r[133] r[134] r[135]
 r[136] r[137] r[138] r[139]
End
